9
1 2
2 7
3 5
4 5
5 1
6 7
7 1
8 6
9 4
40
0 1 82
1 0 82
0 2 17
2 0 17
0 3 29
3 0 29
0 4 87
4 0 87
0 5 80
5 0 80
0 6 79
6 0 79
0 7 86
7 0 86
0 8 28
8 0 28
0 9 27
9 0 27
1 2 92
1 4 84
1 5 21
1 6 6
1 7 74
1 9 58
2 3 41
2 4 98
2 5 83
2 6 69
2 7 80
2 8 56
3 5 41
3 7 82
4 6 54
5 6 58
5 9 8
6 7 61
6 8 20
6 9 17
7 8 40
8 9 56